0 16 9 30 7 16 40 4 47 55
16 0 21 8 39 21 35 34 41 15
9 21 0 40 49 22 3 4 24 23
30 8 40 0 13 46 22 24 16 38
7 39 49 13 0 40 37 2 10 39
16 21 22 46 40 0 1 44 17 22
40 35 3 22 37 1 0 41 28 39
4 34 4 24 2 44 41 0 25 40
47 41 24 16 10 17 28 25 0 2
55 15 23 38 39 22 39 40 2 0